p cnf 49 88
-23 -19 37 0
-19 38 -9 0
-23 -9 39 0
-40 -6 -36 -4 0
-40 -5 -2 -33 0
-32 -8 -3 -40 0
-40 -5 -36 -2 0
-40 -5 -4 -33 0
-32 -8 -2 -40 0
-40 -5 -4 -36 0
-40 -6 -36 -1 0
-40 -8 -1 -33 0
-8 -36 -1 -40 0
-40 -5 -36 -3 0
-8 -3 -35 -40 0
-14 -26 -41 -10 -5 -19 0
-9 -41 -6 -37 -18 0
-15 -9 -41 -6 -37 0
-10 -41 -37 -5 -17 0
-26 -41 -8 -38 -17 0
-16 -41 -24 -38 -5 0
-14 -41 -24 -38 -5 0
-14 -5 -41 -39 -21 0
-16 -41 -39 -22 -5 0
-41 -8 -39 -22 -17 0
-41 -7 -20 -39 -17 0
42 -5 -37 -9 0
-15 -42 -41 0
-41 -42 -17 0
-27 -42 -36 -3 -18 0
-31 -14 -42 -36 -3 0
-32 -27 -42 -4 -18 0
-32 -27 -42 -2 -17 0
-41 -42 -18 0
-16 -42 -41 0
-32 43 -1 0
-40 -5 -43 0
-40 -6 -43 0
-8 -43 -40 0
-30 -14 -43 -42 0
-40 -7 -43 0
-14 -28 -43 -42 0
-30 -43 -42 -17 0
41 -27 -43 0
-29 -43 -26 -38 -5 -18 0
-42 -30 -43 -18 0
-14 -29 -43 -42 0
-31 -14 -43 -42 0
-14 -37 44 0
-32 -30 -44 -9 -8 -4 0
-44 -27 -10 -8 -36 -1 0
-5 -44 -10 -41 0
-8 -44 -12 -41 0
-5 -13 -44 -41 0
-30 -44 -43 -10 -5 0
-31 -44 -43 -10 -8 0
-30 -44 -43 -9 -6 0
-31 -44 -43 -9 -6 0
40 -44 -27 -9 0
-32 -5 45 0
-14 -45 -27 -39 -21 -2 0
-30 -45 -44 -10 -3 0
-40 -45 -2 0
-40 -45 -4 0
-40 -45 -3 0
-8 -14 46 0
-39 -46 -20 -41 0
-39 -46 -21 -41 0
-46 -41 -26 -9 -22 0
-31 -46 -43 -39 -22 0
-5 -1 47 0
-40 -47 -34 0
-40 -47 -33 0
-40 -47 -36 0
-40 -47 -35 0
-47 -44 -27 -12 -36 0
48 -27 -33 0
-48 -9 -8 -37 -1 -17 0
-48 -15 -4 -42 0
-48 -14 -6 -24 -38 -1 0
-48 -44 -11 -5 -3 0
-48 -44 -11 -5 -4 0
49 -38 -25 0
-30 -46 -36 -1 -49 0
-16 -30 -43 -5 -49 0
-16 -8 -49 -41 0
-15 -49 -5 -41 0
-15 -45 -27 -4 -49 0
